Maximize
  0.00442535666008716 Z_199_0_0 + 0.00396479558754764 Z_199_0_1
   + 0.0635715178582363 Z_199_0_2 + 0.0169805394146567 Z_199_0_3
   + 0.8110577904794722 Z_199_0_4 + 0.00442535666008716 Z_199_1_0
   + 0.00396479558754764 Z_199_1_1 + 0.0635715178582363 Z_199_1_2
   + 0.0169805394146567 Z_199_1_3 + 0.8110577904794722 Z_199_1_4
   + 1.2349843167450481e-04 Z_199_9_0 + 0.00150005449524778 Z_199_9_1
   + 0.8586386446393609 Z_199_9_2 + 8.4903554230569421e-04 Z_199_9_3
   + 0.038888766891411 Z_199_9_4 + 0.0441723205624454 Z_199_2_0
   + 0.0593011278794475 Z_199_2_1 + 0.00420758647132577 Z_199_2_2
   + 0.1054020834036691 Z_199_2_3 + 0.6869168816831123 Z_199_2_4
   + 0.00138686959993676 Z_711_5_0 + 0.00224309399692384 Z_711_5_1
   + 0.4789375484480972 Z_711_5_2 + 0.00442686178132932 Z_711_5_3
   + 0.4130056261737128 Z_711_5_4 + 0.00386372660336921 Z_711_0_0
   + 0.00131203858262227 Z_711_0_1 + 0.00764593418425183 Z_711_0_2
   + 0.0457012533757555 Z_711_0_3 + 0.8414770472540012 Z_711_0_4
   + 0.00386372660336921 Z_711_1_0 + 0.00131203858262227 Z_711_1_1
   + 0.00764593418425183 Z_711_1_2 + 0.0457012533757555 Z_711_1_3
   + 0.8414770472540012 Z_711_1_4 + 0.0033210362873364 Z_711_2_0
   + 0.00848348403912238 Z_711_2_1 + 0.0109337428269525 Z_711_2_2
   + 0.0947856533640095 Z_711_2_3 + 0.7824760834825794 Z_711_2_4
   + 0.0151579456654029 Z_711_6_0 + 0.0920130175669148 Z_711_6_1
   + 0.260068494014032 Z_711_6_2 + 0.0206251571436428 Z_711_6_3
   + 0.5121353856100074 Z_711_6_4 + 0.0033210362873364 Z_711_4_0
   + 0.00848348403912238 Z_711_4_1 + 0.0109337428269525 Z_711_4_2
   + 0.0947856533640095 Z_711_4_3 + 0.7824760834825794 Z_711_4_4
   + 0.0033210362873364 Z_711_3_0 + 0.00848348403912238 Z_711_3_1
   + 0.0109337428269525 Z_711_3_2 + 0.0947856533640095 Z_711_3_3
   + 0.7824760834825794 Z_711_3_4
Subject To
 constraint1_1990: Z_199_0_0 + Z_199_0_1 + Z_199_0_2 + Z_199_0_3
   + Z_199_0_4 <= 1
 constraint1_1991: Z_199_1_0 + Z_199_1_1 + Z_199_1_2 + Z_199_1_3
   + Z_199_1_4 <= 1
 constraint1_1999: Z_199_9_0 + Z_199_9_1 + Z_199_9_2 + Z_199_9_3
   + Z_199_9_4 <= 1
 constraint1_1992: Z_199_2_0 + Z_199_2_1 + Z_199_2_2 + Z_199_2_3
   + Z_199_2_4 <= 1
 constraint1_7115: Z_711_5_0 + Z_711_5_1 + Z_711_5_2 + Z_711_5_3
   + Z_711_5_4 <= 1
 constraint1_7110: Z_711_0_0 + Z_711_0_1 + Z_711_0_2 + Z_711_0_3
   + Z_711_0_4 <= 1
 constraint1_7111: Z_711_1_0 + Z_711_1_1 + Z_711_1_2 + Z_711_1_3
   + Z_711_1_4 <= 1
 constraint1_7112: Z_711_2_0 + Z_711_2_1 + Z_711_2_2 + Z_711_2_3
   + Z_711_2_4 <= 1
 constraint1_7116: Z_711_6_0 + Z_711_6_1 + Z_711_6_2 + Z_711_6_3
   + Z_711_6_4 <= 1
 constraint1_7114: Z_711_4_0 + Z_711_4_1 + Z_711_4_2 + Z_711_4_3
   + Z_711_4_4 <= 1
 constraint1_7113: Z_711_3_0 + Z_711_3_1 + Z_711_3_2 + Z_711_3_3
   + Z_711_3_4 <= 1
 constraint2_6220: <= 1
 constraint2_6221: <= 1
 constraint2_6222: <= 1
 constraint2_6223: <= 1
 constraint2_1990: Z_199_0_0 + Z_199_1_0 + Z_199_9_0 + Z_199_2_0 <= 1
 constraint2_1991: Z_199_0_1 + Z_199_1_1 + Z_199_9_1 + Z_199_2_1 <= 1
 constraint2_1992: Z_199_0_2 + Z_199_1_2 + Z_199_9_2 + Z_199_2_2 <= 1
 constraint2_1993: Z_199_0_3 + Z_199_1_3 + Z_199_9_3 + Z_199_2_3 <= 1
 constraint2_2140: <= 1
 constraint2_2141: <= 1
 constraint2_2142: <= 1
 constraint2_2143: <= 1
 constraint2_7110: Z_711_5_0 + Z_711_0_0 + Z_711_1_0 + Z_711_2_0
   + Z_711_6_0 + Z_711_4_0 + Z_711_3_0 <= 1
 constraint2_7111: Z_711_5_1 + Z_711_0_1 + Z_711_1_1 + Z_711_2_1
   + Z_711_6_1 + Z_711_4_1 + Z_711_3_1 <= 1
 constraint2_7112: Z_711_5_2 + Z_711_0_2 + Z_711_1_2 + Z_711_2_2
   + Z_711_6_2 + Z_711_4_2 + Z_711_3_2 <= 1
 constraint2_7113: Z_711_5_3 + Z_711_0_3 + Z_711_1_3 + Z_711_2_3
   + Z_711_6_3 + Z_711_4_3 + Z_711_3_3 <= 1
Bounds
Binaries
 Z_199_0_0 Z_199_0_1 Z_199_0_2 Z_199_0_3 Z_199_0_4 Z_199_1_0 Z_199_1_1
 Z_199_1_2 Z_199_1_3 Z_199_1_4 Z_199_9_0 Z_199_9_1 Z_199_9_2 Z_199_9_3
 Z_199_9_4 Z_199_2_0 Z_199_2_1 Z_199_2_2 Z_199_2_3 Z_199_2_4 Z_711_5_0
 Z_711_5_1 Z_711_5_2 Z_711_5_3 Z_711_5_4 Z_711_0_0 Z_711_0_1 Z_711_0_2
 Z_711_0_3 Z_711_0_4 Z_711_1_0 Z_711_1_1 Z_711_1_2 Z_711_1_3 Z_711_1_4
 Z_711_2_0 Z_711_2_1 Z_711_2_2 Z_711_2_3 Z_711_2_4 Z_711_6_0 Z_711_6_1
 Z_711_6_2 Z_711_6_3 Z_711_6_4 Z_711_4_0 Z_711_4_1 Z_711_4_2 Z_711_4_3
 Z_711_4_4 Z_711_3_0 Z_711_3_1 Z_711_3_2 Z_711_3_3 Z_711_3_4
End
